seed= 2052018 ;
N= 10 ;
M= 2 ;
F= 2 ;
K= 3 ;
T= 18 ;

p=[ 2 2 2 2 2 4 4 4 4 4 ];
r=[ 0 0 0 2 0 1 4 4 3 2 ];
d=[ 2 4 2 2 3 4 9 4 0 1 ];
s=[ 1 1 1 1 1 1 1 1 1 1 ];
w=[ 4 3 1 2 2 3 5 4 2 4 ];
f=[ 1 1 1 1 1 2 2 2 2 2 ];

e1=[ 10 10 10 10 10 10 10 10 10 8 8 8 8 8 8 8 8 8 ];
e2=[ 10 10 10 10 10 10 9 9 9 8 8 8 8 8 8 9 9 9 ];